\* NBA *\
Maximize
OBJ: 70.021 x0 + 48.841 x1 + 24.581 x10 + 2.291 x100 + 13.381 x101
 + 4.201 x102 + 5.531 x103 + 2.841 x104 + 5.601 x105 + 11.751 x106
 + 0.001 x107 + 11.631 x108 + 12.221 x109 + 21.021 x11 + 9.381 x110
 + 10.471 x111 + 0.001 x112 + 40.381 x113 + 33.681 x114 + 33.381 x115
 + 33.511 x116 + 32.451 x117 + 0.001 x118 + 6.101 x119 + 21.101 x12
 + 20.611 x120 + 20.291 x121 + 3.591 x122 + 15.731 x123 + 16.841 x124
 + 11.261 x125 + 4.691 x126 + 4.741 x127 + 2.121 x128 + 0.001 x129 + 0.001 x13
 + 0.001 x130 + 0.571 x131 + 8.441 x132 + 2.271 x133 + 0.001 x134
 + 30.091 x135 + 27.061 x136 + 21.941 x137 + 6.571 x138 + 3.191 x139
 + 19.921 x14 + 9.191 x140 + 12.081 x141 + 13.591 x142 + 20.181 x143
 + 23.071 x144 + 21.381 x145 + 13.021 x146 + 16.031 x147 + 13.501 x148
 + 13.511 x15 + 9.201 x16 + 5.051 x17 + 12.591 x18 + 0.001 x19 + 41.841 x2
 + 13.171 x20 + 3.231 x21 + 9.271 x22 + 1.241 x23 + 0.001 x24 + 3.571 x25
 + 0.001 x26 + 62.171 x27 + 43.621 x28 + 37.731 x29 + 0.001 x3 + 35.141 x30
 + 26.181 x31 + 26.901 x32 + 0.001 x33 + 17.381 x34 + 9.911 x35 + 50.131 x36
 + 30.281 x37 + 26.371 x38 + 22.101 x39 + 30.581 x4 + 18.621 x40 + 17.281 x41
 + 9.881 x42 + 13.681 x43 + 0.001 x44 + 11.051 x45 + 44.811 x46 + 0.001 x47
 + 35.581 x48 + 0.001 x49 + 28.831 x5 + 25.701 x50 + 21.601 x51 + 21.371 x52
 + 20.881 x53 + 15.191 x54 + 8.831 x55 + 18.571 x56 + 0.001 x57 + 15.511 x58
 + 10.291 x59 + 31.741 x6 + 5.011 x60 + 12.151 x61 + 11.291 x62 + 0.001 x63
 + 0.001 x64 + 0.001 x65 + 4.021 x66 + 13.701 x67 + 9.811 x68 + 3.401 x69
 + 13.681 x7 + 0.001 x70 + 0.001 x71 + 0.641 x72 + 38.671 x73 + 29.511 x74
 + 27.371 x75 + 0.001 x76 + 20.831 x77 + 18.011 x78 + 15.911 x79 + 18.681 x8
 + 17.101 x80 + 12.171 x81 + 0.001 x82 + 0.001 x83 + 0.001 x84 + 0.001 x85
 + 0.001 x86 + 11.981 x87 + 0.001 x88 + 0.001 x89 + 0.001 x9 + 1.701 x90
 + 7.891 x91 + 38.561 x92 + 35.401 x93 + 19.071 x94 + 22.371 x95 + 21.401 x96
 + 18.631 x97 + 12.341 x98 + 13.961 x99
Subject To
_C1: 12400 x0 + 8400 x1 + 5100 x10 + 3000 x100 + 3000 x101 + 3000 x102
 + 3000 x103 + 3000 x104 + 3000 x105 + 3000 x106 + 3000 x107 + 3000 x108
 + 3000 x109 + 4800 x11 + 3000 x110 + 3000 x111 + 3000 x112 + 7100 x113
 + 6600 x114 + 6400 x115 + 6200 x116 + 6000 x117 + 5200 x118 + 4300 x119
 + 4100 x12 + 3900 x120 + 3800 x121 + 3700 x122 + 3500 x123 + 3400 x124
 + 3000 x125 + 3000 x126 + 3000 x127 + 3000 x128 + 3000 x129 + 4000 x13
 + 3000 x130 + 3000 x131 + 3000 x132 + 3000 x133 + 6000 x134 + 5800 x135
 + 5600 x136 + 4300 x137 + 3000 x138 + 3000 x139 + 3900 x14 + 3000 x140
 + 3000 x141 + 3000 x142 + 5600 x143 + 4500 x144 + 4300 x145 + 3300 x146
 + 3100 x147 + 3000 x148 + 3600 x15 + 3200 x16 + 3000 x17 + 3000 x18
 + 3000 x19 + 7800 x2 + 3000 x20 + 3000 x21 + 3000 x22 + 3000 x23 + 3000 x24
 + 3000 x25 + 3000 x26 + 11200 x27 + 8100 x28 + 7700 x29 + 7200 x3 + 6200 x30
 + 5300 x31 + 5000 x32 + 4200 x33 + 3600 x34 + 3000 x35 + 9300 x36 + 5800 x37
 + 5000 x38 + 4900 x39 + 6300 x4 + 4100 x40 + 3400 x41 + 3000 x42 + 3000 x43
 + 3000 x44 + 3000 x45 + 8000 x46 + 7500 x47 + 6900 x48 + 5000 x49 + 6100 x5
 + 5000 x50 + 4500 x51 + 4300 x52 + 4100 x53 + 3900 x54 + 3800 x55 + 3600 x56
 + 3300 x57 + 3200 x58 + 3200 x59 + 6000 x6 + 3000 x60 + 3000 x61 + 3000 x62
 + 3000 x63 + 3000 x64 + 3000 x65 + 3000 x66 + 3000 x67 + 3000 x68 + 3000 x69
 + 5700 x7 + 3000 x70 + 3000 x71 + 3000 x72 + 7600 x73 + 6000 x74 + 5700 x75
 + 5400 x76 + 4400 x77 + 4400 x78 + 3800 x79 + 5500 x8 + 3600 x80 + 3400 x81
 + 3000 x82 + 3000 x83 + 3000 x84 + 3000 x85 + 3000 x86 + 3000 x87 + 3000 x88
 + 3000 x89 + 5100 x9 + 3000 x90 + 3000 x91 + 7300 x92 + 5900 x93 + 4600 x94
 + 4100 x95 + 3700 x96 + 3500 x97 + 3100 x98 + 3100 x99 <= 50000
_C10: x100 + x101 + x102 + x103 + x104 + x105 + x106 + x107 + x108 + x109
 + x110 + x111 + x112 + x27 + x28 + x29 + x30 + x31 + x32 + x33 + x34 + x35
 + x36 + x37 + x38 + x39 + x40 + x41 + x42 + x43 + x44 + x45 + x92 + x93 + x94
 + x95 + x96 + x97 + x98 + x99 >= 1
_C11: x27 + x28 + x29 + x30 + x31 + x32 + x33 + x34 + x35 + x46 + x47 + x48
 + x49 + x50 + x51 + x52 + x53 + x54 + x55 + x56 + x57 + x58 + x59 + x60 + x61
 + x62 + x63 + x64 + x65 + x66 + x67 + x68 + x69 + x70 + x71 + x72 <= 2
_C12: x27 + x28 + x29 + x30 + x31 + x32 + x33 + x34 + x35 + x46 + x47 + x48
 + x49 + x50 + x51 + x52 + x53 + x54 + x55 + x56 + x57 + x58 + x59 + x60 + x61
 + x62 + x63 + x64 + x65 + x66 + x67 + x68 + x69 + x70 + x71 + x72 >= 1
_C13: x0 + x1 + x113 + x120 + x38 + x56 + x93 + x96 <= 4
_C2: x0 + x1 + x10 + x100 + x101 + x102 + x103 + x104 + x105 + x106 + x107
 + x108 + x109 + x11 + x110 + x111 + x112 + x113 + x114 + x115 + x116 + x117
 + x118 + x119 + x12 + x120 + x121 + x122 + x123 + x124 + x125 + x126 + x127
 + x128 + x129 + x13 + x130 + x131 + x132 + x133 + x134 + x135 + x136 + x137
 + x138 + x139 + x14 + x140 + x141 + x142 + x143 + x144 + x145 + x146 + x147
 + x148 + x15 + x16 + x17 + x18 + x19 + x2 + x20 + x21 + x22 + x23 + x24 + x25
 + x26 + x27 + x28 + x29 + x3 + x30 + x31 + x32 + x33 + x34 + x35 + x36 + x37
 + x38 + x39 + x4 + x40 + x41 + x42 + x43 + x44 + x45 + x46 + x47 + x48 + x49
 + x5 + x50 + x51 + x52 + x53 + x54 + x55 + x56 + x57 + x58 + x59 + x6 + x60
 + x61 + x62 + x63 + x64 + x65 + x66 + x67 + x68 + x69 + x7 + x70 + x71 + x72
 + x73 + x74 + x75 + x76 + x77 + x78 + x79 + x8 + x80 + x81 + x82 + x83 + x84
 + x85 + x86 + x87 + x88 + x89 + x9 + x90 + x91 + x92 + x93 + x94 + x95 + x96
 + x97 + x98 + x99 = 8
_C3: x0 + x1 + x10 + x11 + x12 + x13 + x14 + x143 + x144 + x145 + x146 + x147
 + x148 + x15 + x16 + x17 + x18 + x19 + x2 + x20 + x21 + x22 + x23 + x24 + x25
 + x26 + x3 + x4 + x5 + x6 + x7 + x8 + x9 <= 3
_C4: x0 + x1 + x10 + x11 + x12 + x13 + x14 + x143 + x144 + x145 + x146 + x147
 + x148 + x15 + x16 + x17 + x18 + x19 + x2 + x20 + x21 + x22 + x23 + x24 + x25
 + x26 + x3 + x4 + x5 + x6 + x7 + x8 + x9 >= 1
_C5: x113 + x114 + x115 + x116 + x117 + x118 + x119 + x120 + x121 + x122
 + x123 + x124 + x125 + x126 + x127 + x128 + x129 + x130 + x131 + x132 + x133
 + x134 + x135 + x136 + x137 + x138 + x139 + x140 + x141 + x142 + x143 + x144
 + x145 + x146 + x147 + x148 <= 3
_C6: x113 + x114 + x115 + x116 + x117 + x118 + x119 + x120 + x121 + x122
 + x123 + x124 + x125 + x126 + x127 + x128 + x129 + x130 + x131 + x132 + x133
 + x134 + x135 + x136 + x137 + x138 + x139 + x140 + x141 + x142 + x143 + x144
 + x145 + x146 + x147 + x148 >= 1
_C7: x134 + x135 + x136 + x137 + x138 + x139 + x140 + x141 + x142 + x36 + x37
 + x38 + x39 + x40 + x41 + x42 + x43 + x44 + x45 + x73 + x74 + x75 + x76 + x77
 + x78 + x79 + x80 + x81 + x82 + x83 + x84 + x85 + x86 + x87 + x88 + x89 + x90
 + x91 <= 3
_C8: x134 + x135 + x136 + x137 + x138 + x139 + x140 + x141 + x142 + x36 + x37
 + x38 + x39 + x40 + x41 + x42 + x43 + x44 + x45 + x73 + x74 + x75 + x76 + x77
 + x78 + x79 + x80 + x81 + x82 + x83 + x84 + x85 + x86 + x87 + x88 + x89 + x90
 + x91 >= 1
_C9: x100 + x101 + x102 + x103 + x104 + x105 + x106 + x107 + x108 + x109
 + x110 + x111 + x112 + x27 + x28 + x29 + x30 + x31 + x32 + x33 + x34 + x35
 + x36 + x37 + x38 + x39 + x40 + x41 + x42 + x43 + x44 + x45 + x92 + x93 + x94
 + x95 + x96 + x97 + x98 + x99 <= 3
Binaries
x0
x1
x10
x100
x101
x102
x103
x104
x105
x106
x107
x108
x109
x11
x110
x111
x112
x113
x114
x115
x116
x117
x118
x119
x12
x120
x121
x122
x123
x124
x125
x126
x127
x128
x129
x13
x130
x131
x132
x133
x134
x135
x136
x137
x138
x139
x14
x140
x141
x142
x143
x144
x145
x146
x147
x148
x15
x16
x17
x18
x19
x2
x20
x21
x22
x23
x24
x25
x26
x27
x28
x29
x3
x30
x31
x32
x33
x34
x35
x36
x37
x38
x39
x4
x40
x41
x42
x43
x44
x45
x46
x47
x48
x49
x5
x50
x51
x52
x53
x54
x55
x56
x57
x58
x59
x6
x60
x61
x62
x63
x64
x65
x66
x67
x68
x69
x7
x70
x71
x72
x73
x74
x75
x76
x77
x78
x79
x8
x80
x81
x82
x83
x84
x85
x86
x87
x88
x89
x9
x90
x91
x92
x93
x94
x95
x96
x97
x98
x99
End
